NAME: n100q15G.tsp, 100 nodes, semilla 666
COMMENT: Problema aleatorio de norma euclidea
DIMENSION: 100
CAPACITY: 15
EDGE_WEIGHT_TYPE: EUC_2D
NODE_COORD_SECTION
1   0.0000   0.0000
2 235.0000 -286.0000
3 -447.0000 493.0000
4  60.0000 350.0000
5 -467.0000 374.0000
6 500.0000 390.0000
7 169.0000 153.0000
8 -413.0000 -465.0000
9 254.0000 -350.0000
10 -15.0000 -331.0000
11 -493.0000 341.0000
12 -223.0000  27.0000
13 305.0000 -209.0000
14 -60.0000 443.0000
15  35.0000 331.0000
16 -487.0000 -365.0000
17 -310.0000 -272.0000
18 347.0000  65.0000
19 416.0000 161.0000
20 299.0000 -15.0000
21 -173.0000 157.0000
22 360.0000 -12.0000
23 -291.0000 -184.0000
24 341.0000 299.0000
25 -15.0000 474.0000
26 -294.0000 -340.0000
27 -328.0000 134.0000
28 245.0000 108.0000
29 -403.0000 -282.0000
30 474.0000 -250.0000
31 -378.0000 413.0000
32 -240.0000 363.0000
33 -251.0000 -387.0000
34 -217.0000  74.0000
35 -379.0000  43.0000
36 -329.0000  34.0000
37 -408.0000 -209.0000
38 226.0000 -290.0000
39 368.0000 464.0000
40 -204.0000 -424.0000
41 -347.0000  23.0000
42 -38.0000 -191.0000
43 -185.0000 -398.0000
44 474.0000 -137.0000
45 -331.0000 -291.0000
46 -111.0000 280.0000
47 -363.0000 484.0000
48 -486.0000   7.0000
49 460.0000 300.0000
50 389.0000 189.0000
51 184.0000 -214.0000
52 183.0000 -55.0000
53 -412.0000 140.0000
54 -71.0000 -141.0000
55   4.0000 -281.0000
56 -189.0000 -475.0000
57 -278.0000 -383.0000
58 298.0000  75.0000
59 -176.0000 232.0000
60 127.0000 -19.0000
61 183.0000 194.0000
62  98.0000   2.0000
63  31.0000 -145.0000
64 207.0000 -488.0000
65  40.0000 291.0000
66 408.0000 113.0000
67 -63.0000 256.0000
68 -309.0000 343.0000
69 -385.0000 204.0000
70 -235.0000 -396.0000
71 360.0000 -345.0000
72 -449.0000 107.0000
73 -304.0000 408.0000
74 -280.0000 -325.0000
75 -221.0000  32.0000
76 -52.0000  21.0000
77 -460.0000 439.0000
78  12.0000 444.0000
79 -194.0000 -179.0000
80 277.0000 -75.0000
81 -23.0000 156.0000
82 -155.0000 111.0000
83 368.0000 -468.0000
84 -477.0000  28.0000
85 -96.0000  47.0000
86 -41.0000 -168.0000
87  -5.0000 -441.0000
88  34.0000  -6.0000
89  46.0000 380.0000
90 -369.0000 385.0000
91  39.0000 386.0000
92 -310.0000 -48.0000
93 340.0000 -462.0000
94 167.0000 389.0000
95 384.0000 -336.0000
96 246.0000   7.0000
97 495.0000 -475.0000
98 -202.0000 -66.0000
99 316.0000 142.0000
100 160.0000 135.0000
DISPLAY_DATA_SECTION:
 1  250  250
 2  367  107
 3   26  496
 4  280  425
 5   16  437
 6  500  445
 7  334  326
 8   43   17
 9  377   75
10  242   84
11    3  420
12  138  263
13  402  145
14  220  471
15  267  415
16    6   67
17   95  114
18  423  282
19  458  330
20  399  242
21  163  328
22  430  244
23  104  158
24  420  399
25  242  487
26  103   80
27   86  317
28  372  304
29   48  109
30  487  125
31   61  456
32  130  431
33  124   56
34  141  287
35   60  271
36   85  267
37   46  145
38  363  105
39  434  482
40  148   38
41   76  261
42  231  154
43  157   51
44  487  181
45   84  104
46  194  390
47   68  492
48    7  253
49  480  400
50  444  344
51  342  143
52  341  222
53   44  320
54  214  179
55  252  109
56  155   12
57  111   58
58  399  287
59  162  366
60  313  240
61  341  347
62  299  251
63  265  177
64  353    6
65  270  395
66  454  306
67  218  378
68   95  421
69   57  352
70  132   52
71  430   77
72   25  303
73   98  454
74  110   87
75  139  266
76  224  260
77   20  469
78  256  472
79  153  160
80  388  212
81  238  328
82  172  305
83  434   16
84   11  264
85  202  273
86  229  166
87  247   29
88  267  247
89  273  440
90   65  442
91  269  443
92   95  226
93  420   19
94  333  444
95  442   82
96  373  253
97  497   12
98  149  217
99  408  321
100  330  317
DEMAND_SECTION
1 4
2 0
3 5
4 0
5 3
6 2
7 -2
8 -1
9 -2
10 1
11 1
12 4
13 -5
14 -2
15 -9
16 -7
17 0
18 7
19 8
20 -3
21 7
22 -9
23 -8
24 -4
25 -2
26 -1
27 -1
28 2
29 -4
30 -9
31 0
32 3
33 4
34 8
35 0
36 0
37 -7
38 8
39 4
40 -6
41 -6
42 -6
43 7
44 -4
45 -6
46 5
47 1
48 -6
49 5
50 0
51 -6
52 -9
53 -10
54 -6
55 -9
56 -3
57 2
58 -9
59 -2
60 2
61 3
62 -2
63 7
64 2
65 10
66 -5
67 4
68 0
69 -8
70 2
71 10
72 10
73 2
74 5
75 -9
76 -2
77 9
78 3
79 10
80 5
81 -2
82 9
83 5
84 -5
85 0
86 -1
87 -1
88 7
89 7
90 -6
91 -9
92 3
93 7
94 -2
95 1
96 -7
97 -5
98 4
99 10
100 0
EOF